; benchmark generated from python API
(set-info :status unknown)
(declare-datatypes ((RealState 0)) (((RMk1 (rval1 Real)) (RMk2 (rval2 Real)))))
 (assert
 (forall ((|v11:0| Real) )(exists ((|v10:1_st| RealState) (val!1806 Real) )(forall ((|v9:2| Real) )(exists ((|v8:3_st| RealState) (val!1807 Real) )(forall ((|v7:4| Real) )(exists ((|v6:5_st| RealState) (val!1808 Real) )(forall ((|v5:6| Real) )(exists ((|v4:7_st| RealState) (val!1809 Real) )(forall ((|v3:8| Real) )(exists ((|v2:9_st| RealState) (val!1810 Real) )(forall ((|v1:10| Real) )(exists ((|v0:11_st| RealState) (val!1811 Real) )(let ((?x2937 (- 1.0)))
 (let ((?x1040 (* 20.0 |v11:0|)))
 (let ((?x720 (+ (+ (* (- 18.0) (rval2 |v4:7_st|)) (* (- 19.0) (rval2 |v0:11_st|))) ?x1040)))
 (let ((?x343 (- 17.0)))
 (let ((?x1825 (* ?x343 |v7:4|)))
 (let ((?x1699 (rval2 |v0:11_st|)))
 (let ((?x2505 (* 9.0 ?x1699)))
 (let (($x2865 (<= (+ (+ (+ (* (- 8.0) |v3:8|) (* (- 20.0) |v11:0|)) ?x2505) ?x1825) 14.0)))
 (let ((?x1452 (+ (+ (* (- 13.0) (rval2 |v4:7_st|)) (* 13.0 |v5:6|)) (* (- 5.0) (rval2 |v2:9_st|)))))
 (let ((?x68 (- 13.0)))
 (let ((?x2321 (* 19.0 |v9:2|)))
 (let ((?x1965 (+ (+ (+ (* (- 12.0) |v5:6|) (* (- 10.0) |v7:4|)) (* 5.0 |v5:6|)) ?x2321)))
 (let (($x1849 (or (<= ?x1965 ?x68) (<= (+ ?x1452 (* (- 3.0) (rval2 |v8:3_st|))) 14.0))))
 (let ((?x967 (rval2 |v8:3_st|)))
 (let ((?x1331 (- 18.0)))
 (let ((?x2538 (* ?x1331 ?x967)))
 (let ((?x1128 (+ (+ (+ (* (- 11.0) |v5:6|) (* (- 14.0) |v11:0|)) (* ?x2937 |v1:10|)) ?x2538)))
 (let ((?x540 (rval2 |v4:7_st|)))
 (let ((?x1689 (* 12.0 ?x540)))
 (let ((?x2174 (+ (+ (+ (* (- 7.0) ?x540) (* 5.0 |v11:0|)) (* (- 12.0) ?x540)) ?x1689)))
 (let ((?x3007 (- 12.0)))
 (let ((?x699 (rval2 |v2:9_st|)))
 (let ((?x1424 (- 9.0)))
 (let ((?x947 (* ?x1424 ?x699)))
 (let ((?x1875 (+ (+ (+ (* (- 14.0) ?x1699) (* ?x1331 |v9:2|)) (* (- 19.0) |v3:8|)) ?x947)))
 (let ((?x1299 (- 8.0)))
 (let ((?x2927 (+ (+ (+ ?x1689 (* (- 7.0) |v11:0|)) ?x947) (* (- 3.0) (rval2 |v6:5_st|)))))
 (let (($x866 (or (and (<= ?x2927 ?x1299) (<= ?x1875 ?x3007)) (and (<= ?x2174 9.0) (<= ?x1128 15.0)))))
 (let (($x2137 (or $x866 (and $x1849 (or $x2865 (<= (+ ?x720 (* (- 7.0) |v9:2|)) ?x2937))))))
 (let ((?x717 (- 10.0)))
 (let ((?x1245 (+ (+ (+ (* 4.0 ?x699) (* ?x1331 ?x540)) (* 4.0 |v11:0|)) (* 15.0 ?x540))))
 (let ((?x1109 (- 14.0)))
 (let ((?x945 (* ?x1109 |v1:10|)))
 (let (($x2520 (<= (+ (+ (+ (* 6.0 |v11:0|) (* ?x1424 ?x1699)) (* ?x1424 ?x1699)) ?x945) ?x1299)))
 (let ((?x2029 (* 16.0 |v3:8|)))
 (let ((?x2181 (+ (+ (+ (* (- 7.0) |v3:8|) (* (- 3.0) ?x699)) (* ?x3007 ?x967)) ?x2029)))
 (let ((?x1995 (+ (+ (+ (* 13.0 |v5:6|) (* 5.0 (rval2 |v6:5_st|))) |v7:4|) (* (- 20.0) ?x1699))))
 (let ((?x1705 (+ (+ (+ (* 8.0 ?x699) (* (- 6.0) |v1:10|)) (* ?x1109 |v7:4|)) (* (- 15.0) (rval2 |v10:1_st|)))))
 (let ((?x1813 (+ (+ (+ (* 6.0 ?x967) (* 2.0 |v1:10|)) (* (- 5.0) |v7:4|)) (* (- 20.0) |v9:2|))))
 (let ((?x55 (- 16.0)))
 (let ((?x1399 (* 18.0 ?x699)))
 (let (($x2522 (<= (+ (+ (+ (* (- 4.0) ?x1699) (* 5.0 ?x1699)) (* ?x1424 |v5:6|)) ?x1399) ?x55)))
 (let ((?x38 (+ (+ (+ (* 5.0 |v9:2|) (* 8.0 ?x1699)) (* 4.0 |v9:2|)) (* (- 6.0) (rval2 |v6:5_st|)))))
 (let (($x1619 (and (or (<= ?x38 9.0) $x2522) (and (<= ?x1813 ?x1331) (<= ?x1705 14.0)))))
 (let (($x2141 (or $x1619 (or (or (<= ?x1995 ?x1299) (<= ?x2181 15.0)) (and $x2520 (<= ?x1245 ?x717))))))
 (let ((?x1629 (* 20.0 |v1:10|)))
 (let ((?x1188 (+ (+ (+ (* (- 3.0) (rval2 |v10:1_st|)) (* 15.0 (rval2 |v10:1_st|))) ?x1629) (* ?x55 |v5:6|))))
 (let ((?x801 (- 2.0)))
 (let ((?x254 (rval2 |v6:5_st|)))
 (let ((?x1852 (- 7.0)))
 (let ((?x495 (* ?x1852 ?x254)))
 (let ((?x131 (+ (+ (+ (* (- 11.0) ?x540) (* (- 4.0) |v7:4|)) (* ?x1424 |v1:10|)) ?x495)))
 (let ((?x2609 (- 15.0)))
 (let ((?x1024 (+ (+ (+ (* 0.0 |v1:10|) (* (- 6.0) (rval2 |v10:1_st|))) (* 9.0 ?x540)) ?x1629)))
 (let (($x1925 (<= (+ (+ (+ (* 0.0 ?x699) ?x495) (* ?x343 |v11:0|)) (* 15.0 |v7:4|)) 13.0)))
 (let ((?x626 (* 10.0 |v11:0|)))
 (let (($x2130 (<= (+ (+ (+ (* ?x3007 |v7:4|) (* 6.0 |v1:10|)) (* 12.0 |v1:10|)) ?x626) 15.0)))
 (let ((?x2598 (* ?x1852 |v7:4|)))
 (let (($x145 (<= (+ (+ (+ (* 20.0 ?x699) (* ?x3007 |v11:0|)) (* (- 5.0) |v7:4|)) ?x2598) 13.0)))
 (let ((?x1385 (+ (+ (+ (* 4.0 |v11:0|) (* ?x1331 |v7:4|)) (* (- 20.0) |v7:4|)) (* (- 5.0) ?x254))))
 (let ((?x707 (+ (+ (+ (* 20.0 ?x967) (* ?x1109 ?x699)) (* ?x2609 |v7:4|)) (* ?x2937 |v3:8|))))
 (let (($x3008 (or (and (and (<= ?x707 15.0) (<= ?x1385 16.0)) (and $x145 $x2130)) (or (and $x1925 (<= ?x1024 ?x2609)) (or (<= ?x131 ?x801) (<= ?x1188 3.0))))))
 (let (($x2230 (<= (+ (+ (+ (* 12.0 |v7:4|) (* (- 11.0) |v9:2|)) ?x540) (* ?x343 |v11:0|)) ?x1299)))
 (let ((?x1939 (+ (+ (+ (* ?x55 |v1:10|) (* ?x1424 ?x1699)) (* 2.0 |v1:10|)) (* 19.0 |v5:6|))))
 (let ((?x2083 (- 5.0)))
 (let ((?x2150 (* ?x1331 |v5:6|)))
 (let ((?x908 (+ (+ (+ (* 16.0 ?x254) (* ?x1331 (rval2 |v10:1_st|))) (* ?x717 |v9:2|)) ?x2150)))
 (let ((?x2610 (- 6.0)))
 (let ((?x1464 (+ (+ (+ (* 9.0 |v3:8|) (* (- 19.0) ?x254)) ?x947) (* 8.0 ?x254))))
 (let ((?x538 (- 3.0)))
 (let ((?x641 (* 17.0 ?x699)))
 (let (($x1030 (<= (+ (+ (+ (* 14.0 |v11:0|) (* 12.0 |v9:2|)) (* ?x1852 |v11:0|)) ?x641) ?x538)))
 (let ((?x2953 (+ (+ (+ (* 2.0 |v11:0|) (rval2 |v10:1_st|)) (* ?x55 |v3:8|)) (* 3.0 ?x699))))
 (let ((?x1537 (* 17.0 |v9:2|)))
 (let (($x2955 (<= (+ (+ (+ (* 2.0 ?x699) (* 9.0 |v3:8|)) (* 19.0 ?x699)) ?x1537) 20.0)))
 (let ((?x1103 (* ?x68 |v7:4|)))
 (let (($x1857 (<= (+ (+ (+ (* 2.0 ?x699) (* 8.0 |v11:0|)) (* ?x2083 |v9:2|)) ?x1103) ?x2937)))
 (let (($x922 (and (and (and $x1857 $x2955) (or (<= ?x2953 ?x1852) $x1030)) (or (and (<= ?x1464 ?x2610) (<= ?x908 ?x2083)) (and (<= ?x1939 ?x717) $x2230)))))
 (let ((?x2177 (* 13.0 ?x540)))
 (let (($x1122 (<= (+ (+ (+ (* 13.0 (rval2 |v10:1_st|)) (* 19.0 |v7:4|)) |v11:0|) ?x2177) 1.0)))
 (let (($x1223 (<= (+ (+ (+ (* (- 11.0) ?x1699) ?x2505) (* ?x343 |v3:8|)) (* 19.0 ?x1699)) 17.0)))
 (let ((?x2882 (* 5.0 ?x254)))
 (let (($x646 (<= (+ (+ (+ (* (- 4.0) |v7:4|) ?x1825) (* 13.0 ?x254)) ?x2882) 20.0)))
 (let ((?x1259 (* 2.0 ?x540)))
 (let (($x1144 (<= (+ (+ (+ (* 19.0 |v3:8|) (* 12.0 |v3:8|)) (* 2.0 |v5:6|)) ?x1259) ?x1109)))
 (let ((?x1474 (* 5.0 |v11:0|)))
 (let (($x2385 (<= (+ (+ (+ (* ?x1331 ?x254) (* ?x55 ?x699)) (* ?x1299 |v3:8|)) ?x1474) ?x2610)))
 (let ((?x309 (* 4.0 ?x254)))
 (let ((?x319 (+ (+ (+ (* 19.0 |v7:4|) (* 14.0 ?x540)) (* ?x2083 (rval2 |v10:1_st|))) ?x309)))
 (let (($x2437 (<= (+ (+ (+ (* ?x343 ?x1699) |v9:2|) (* ?x2083 (rval2 |v10:1_st|))) (* ?x538 |v1:10|)) 20.0)))
 (let (($x2459 (and $x2437 (<= (+ (+ (+ ?x2538 ?x1040) (* (- 20.0) ?x540)) |v9:2|) 8.0))))
 (let (($x2558 (or (or $x2459 (and (<= ?x319 6.0) $x2385)) (and (or $x1144 $x646) (and $x1223 $x1122)))))
 (let (($x1766 (<= (+ (+ (+ (* 16.0 |v7:4|) (* (- 20.0) |v7:4|)) (* ?x68 |v11:0|)) ?x2505) ?x1299)))
 (let (($x2618 (<= (+ (+ (+ (* 9.0 |v5:6|) (* 18.0 ?x1699)) ?x2029) (* 20.0 ?x1699)) ?x1331)))
 (let ((?x1437 (* ?x1331 |v3:8|)))
 (let (($x1812 (<= (+ (+ (+ (* 0.0 ?x540) (* 11.0 |v9:2|)) (* ?x2937 ?x254)) ?x1437) 7.0)))
 (let ((?x880 (* 7.0 |v3:8|)))
 (let (($x2415 (<= (+ (+ (+ (* ?x2083 ?x967) (* 2.0 |v11:0|)) (* (- 4.0) |v9:2|)) ?x880) 7.0)))
 (let ((?x844 (* 10.0 |v7:4|)))
 (let (($x1295 (<= (+ (+ (+ (* 15.0 |v7:4|) (* 11.0 |v1:10|)) (* 20.0 |v5:6|)) ?x844) ?x1331)))
 (let ((?x2405 (* 4.0 |v11:0|)))
 (let ((?x1704 (rval2 |v10:1_st|)))
 (let ((?x160 (* 18.0 ?x1704)))
 (let ((?x316 (* 2.0 ?x699)))
 (let (($x2504 (<= (+ (+ (+ (* 6.0 |v9:2|) (* ?x1424 ?x540)) (* ?x1852 |v5:6|)) ?x316) 7.0)))
 (let (($x1982 (and $x2504 (<= (+ (+ (+ (* 9.0 ?x1704) (* 8.0 |v3:8|)) ?x160) ?x2405) ?x2609))))
 (let ((?x1298 (+ (+ (+ (* ?x2083 |v1:10|) (* ?x1331 |v1:10|)) (* 10.0 ?x967)) (* ?x2609 |v9:2|))))
 (let ((?x1090 (* ?x538 ?x1704)))
 (let (($x2694 (<= (+ (+ (+ (* 12.0 ?x967) (* 0.0 |v9:2|)) (* 9.0 |v7:4|)) ?x1090) ?x717)))
 (let ((?x1521 (+ (+ (+ (* ?x2937 ?x699) (* 14.0 ?x1699)) (* 9.0 ?x1704)) (* 11.0 |v7:4|))))
 (let ((?x1861 (* 3.0 |v9:2|)))
 (let ((?x1739 (+ (+ (+ (* 3.0 ?x967) (* (- 20.0) ?x699)) (* (- 4.0) ?x540)) ?x1861)))
 (let ((?x2305 (- 20.0)))
 (let ((?x2318 (+ (+ (+ (* 18.0 |v5:6|) (* ?x1299 |v9:2|)) (* 16.0 |v11:0|)) (* 9.0 |v11:0|))))
 (let (($x1726 (<= (+ (+ (+ ?x160 (* ?x2610 |v9:2|)) (* (- 4.0) ?x1704)) (* ?x3007 |v3:8|)) 10.0)))
 (let ((?x267 (* 10.0 |v5:6|)))
 (let (($x2270 (<= (+ (+ (+ (* ?x3007 ?x1704) (* ?x3007 |v9:2|)) (* ?x343 |v5:6|)) ?x267) 14.0)))
 (let ((?x1673 (+ (+ (+ (* 18.0 ?x540) (* ?x1331 ?x540)) (* 9.0 |v1:10|)) (* (- 19.0) |v1:10|))))
 (let ((?x1380 (* 5.0 |v7:4|)))
 (let (($x1538 (<= (+ (+ (+ (* ?x2610 |v11:0|) (* 17.0 |v1:10|)) (* ?x538 ?x1699)) ?x1380) ?x1852)))
 (let (($x2847 (and (and (or $x1538 (<= ?x1673 11.0)) (or $x2270 $x1726)) (and (or (<= ?x2318 ?x2305) (<= ?x1739 ?x538)) (and (<= ?x1521 ?x538) $x2694)))))
 (let (($x969 (and (and $x2847 (<= ?x1298 12.0)) (and (or (or $x1982 (and $x1295 $x2415)) (and (or $x1812 $x2618) $x1766)) $x2558))))
 (let (($x1423 (not (= |v0:11_st| (RMk1 val!1811)))))
 (let (($x937 (not (= |v2:9_st| (RMk1 val!1810)))))
 (let (($x1277 (not (= |v4:7_st| (RMk1 val!1809)))))
 (let (($x1151 (not (= |v6:5_st| (RMk1 val!1808)))))
 (let (($x1011 (not (= |v8:3_st| (RMk1 val!1807)))))
 (let (($x439 (not (= |v10:1_st| (RMk1 val!1806)))))
 (and $x439 $x1011 $x1151 $x1277 $x937 $x1423 (and $x969 (and (or $x922 $x3008) (or $x2141 $x2137)))))))))))))))))))))))))))))))))))))))))))))))))))))))))))))))))))))))))))))))))))))))))))))))))))))))))))))))))))))))))))))))))))))
 )
 )
 )
 )
 )
 )
 )
 )
 )
 )
 )
 )
(check-sat)
